120
150
50
53
47
59
41
50
50
60
58
47
54
53
51
56
42
45
51
43
54
60
45
56
48
45
54
55
57
51
54
46
50
53
48
54
55
46
57
48
50
51
51
43
50
48
48
52
50
59
57
51
48
50
52
42
52
49
49
45
49
45
51
51
54
48
48
53
48
49
48
41
50
47
43
53
41
48
58
60
50
49
46
60
55
40
50
50
51
49
48
48
54
60
60
58
51
49
57
54
42
53
60
45
41
51
59
58
48
44
41
44
50
40
40
45
48
52
43
40
51
59
